167
100
31
66
22
53
19
26
14
81
53
70
38
19
20
23
43
47
30
5
47
4
27
29
68
5
84
62
95
21
63
32
3
5
54
24
93
27
42
55
92
38
20
78
15
61
63
3
54
19
63
73
3
4
23
27
9
59
43
58
25
27
43
24
50
57
96
15
36
95
25
36
39
14
59
64
71
32
38
30
1
7
1
15
18
42
77
31
33
96
16
20
78
2
61
30
15
16
73
10
51
49
15
17
26
70
23
100
27
83
64
9
69
5
44
48
17
31
23
30
47
15
4
22
17
35
50
10
1
31
99
53
4
57
35
6
22
16
7
26
49
99
99
4
17
8
20
7
8
14
61
6
15
46
5
1
31
13
52
32
24
16
21
1
31
6
85
47
1
